Route #1: 62 55 59 31 63 46 32 
Route #2: 22 43 17 27 36 40 58 19 
Route #3: 29 9 4 24 56 
Route #4: 15 23 37 54 20 33 
Route #5: 28 50 2 47 8 42 
Route #6: 38 18 12 35 26 44 5 61 
Route #7: 48 51 34 16 60 13 52 41 10 
Route #8: 45 3 30 49 14 25 
Route #9: 6 11 57 1 21 7 39 53 
cost 1975.21
